mixintcount/benchmarks/random_v2l/4_4_398.in
16 6
#	x1	x2	x3	x4;		0 = Real; 1 = Integer
	1	1	1	1
1	-1	-7	-10	-5	11
1	5	7	10	-6	16
1	3	2	6	-2	-253
1	-7	-8	-5	10	-181
1	-7	5	3	-1	-94
1	2	-7	-8	-4	152
1	-8	4	-7	-8	120
1	-6	7	2	-6	151
1	1	0	0	0	398
1	-1	0	0	0	398
1	0	1	0	0	398
1	0	-1	0	0	398
1	0	0	1	0	398
1	0	0	-1	0	398
1	0	0	0	1	398
1	0	0	0	-1	398
